100
100
99
97
95
95
94
92
91
89
86
86
85
84
80
80
80
80
80
79
76
76
75
74
73
71
71
69
65
64
64
64
63
63
62
60
59
58
57
54
53
52
51
50
48
48
48
46
44
43
43
43
43
42
41
40
40
39
38
38
38
38
37
37
37
37
36
35
34
33
32
30
29
28
26
26
26
24
23
22
21
21
19
18
17
16
16
15
14
13
12
12
11
9
9
8
8
7
6
6
5
1
